9
0 552 26 1 105 18 174 65 53
552 0 63 132 256 89 378 156 356
26 63 0 622 111 212 56 350 81
1 132 622 0 15 105 438 304 432
105 256 111 15 0 95 245 151 91
18 89 212 105 95 0 423 223 51
174 378 56 438 245 423 0 557 107
65 156 350 304 151 223 557 0 116
53 356 81 432 91 51 107 116 0